benchmarks_CP/INST_36x36/25/inst36x36_25_89.dzn
S=6;
start=[|
-1,	-1,	25,	-1,	34,	-1,	-1,	2,	-1,	1,	-1,	-1,	-1,	-1,	-1,	8,	-1,	-1,	-1,	-1,	-1,	-1,	13,	-1,	26,	-1,	-1,	-1,	-1,	-1,	-1,	5,	-1,	-1,	-1,	-1|
-1,	13,	4,	30,	5,	-1,	-1,	-1,	-1,	20,	28,	31,	-1,	-1,	-1,	15,	25,	2,	24,	26,	-1,	29,	11,	33,	-1,	-1,	-1,	10,	16,	-1,	-1,	22,	-1,	32,	-1,	-1|
-1,	-1,	-1,	-1,	-1,	-1,	-1,	13,	32,	-1,	26,	-1,	-1,	10,	34,	-1,	27,	-1,	-1,	-1,	23,	22,	-1,	-1,	-1,	-1,	-1,	-1,	12,	11,	24,	15,	-1,	2,	-1,	-1|
-1,	-1,	28,	-1,	-1,	-1,	9,	-1,	-1,	3,	-1,	-1,	-1,	-1,	-1,	-1,	-1,	16,	10,	-1,	-1,	-1,	-1,	25,	17,	29,	20,	-1,	-1,	-1,	27,	-1,	-1,	-1,	23,	-1|
27,	-1,	-1,	-1,	-1,	-1,	-1,	-1,	-1,	33,	-1,	21,	-1,	-1,	-1,	-1,	5,	23,	-1,	-1,	-1,	-1,	-1,	28,	22,	-1,	-1,	3,	-1,	-1,	-1,	-1,	-1,	-1,	29,	-1|
11,	-1,	-1,	31,	-1,	-1,	15,	23,	-1,	-1,	-1,	-1,	-1,	-1,	-1,	-1,	-1,	-1,	-1,	-1,	-1,	-1,	-1,	-1,	-1,	2,	-1,	-1,	-1,	-1,	-1,	-1,	7,	33,	-1,	-1|
33,	-1,	-1,	-1,	-1,	-1,	-1,	-1,	-1,	-1,	-1,	-1,	-1,	-1,	32,	14,	-1,	-1,	-1,	-1,	24,	-1,	-1,	-1,	-1,	8,	-1,	-1,	-1,	-1,	6,	-1,	-1,	-1,	-1,	-1|
25,	-1,	-1,	-1,	30,	-1,	23,	-1,	-1,	-1,	-1,	-1,	-1,	5,	-1,	-1,	-1,	27,	-1,	-1,	33,	-1,	-1,	-1,	-1,	-1,	-1,	-1,	-1,	-1,	-1,	-1,	-1,	-1,	-1,	9|
-1,	-1,	-1,	14,	-1,	-1,	-1,	-1,	-1,	-1,	-1,	-1,	-1,	-1,	-1,	-1,	-1,	-1,	3,	-1,	6,	-1,	-1,	-1,	-1,	-1,	-1,	-1,	-1,	-1,	-1,	-1,	-1,	-1,	-1,	1|
-1,	24,	-1,	19,	13,	-1,	-1,	-1,	-1,	-1,	15,	17,	-1,	-1,	-1,	-1,	20,	-1,	-1,	-1,	-1,	8,	-1,	-1,	-1,	-1,	-1,	-1,	-1,	-1,	-1,	-1,	27,	-1,	-1,	-1|
-1,	10,	-1,	-1,	-1,	-1,	-1,	-1,	-1,	-1,	18,	-1,	-1,	12,	-1,	-1,	-1,	24,	-1,	-1,	-1,	-1,	-1,	-1,	-1,	-1,	-1,	-1,	14,	-1,	-1,	-1,	17,	-1,	-1,	33|
-1,	-1,	-1,	-1,	-1,	-1,	-1,	-1,	19,	9,	20,	35,	22,	-1,	21,	-1,	-1,	-1,	23,	-1,	-1,	-1,	18,	-1,	-1,	-1,	-1,	-1,	-1,	27,	-1,	-1,	-1,	-1,	-1,	-1|
-1,	14,	2,	16,	-1,	-1,	-1,	-1,	22,	5,	-1,	-1,	-1,	-1,	-1,	-1,	-1,	-1,	34,	-1,	-1,	-1,	-1,	10,	31,	-1,	-1,	-1,	26,	-1,	-1,	-1,	-1,	7,	-1,	-1|
-1,	-1,	-1,	12,	-1,	-1,	-1,	-1,	24,	-1,	10,	9,	-1,	15,	-1,	-1,	-1,	31,	-1,	-1,	-1,	-1,	-1,	-1,	-1,	-1,	-1,	-1,	-1,	1,	-1,	-1,	-1,	-1,	11,	-1|
-1,	-1,	10,	7,	-1,	-1,	-1,	-1,	-1,	-1,	-1,	20,	-1,	-1,	-1,	-1,	-1,	-1,	-1,	-1,	-1,	-1,	-1,	-1,	-1,	-1,	-1,	-1,	-1,	-1,	-1,	-1,	12,	-1,	-1,	-1|
-1,	-1,	-1,	6,	-1,	5,	-1,	15,	-1,	-1,	-1,	-1,	32,	29,	-1,	-1,	-1,	-1,	-1,	-1,	-1,	-1,	-1,	-1,	-1,	3,	-1,	-1,	22,	-1,	-1,	-1,	-1,	-1,	-1,	31|
-1,	-1,	-1,	-1,	-1,	-1,	-1,	3,	-1,	-1,	-1,	-1,	-1,	-1,	-1,	-1,	-1,	-1,	-1,	-1,	4,	-1,	-1,	5,	-1,	-1,	6,	-1,	-1,	-1,	-1,	8,	-1,	-1,	-1,	34|
13,	-1,	19,	-1,	-1,	-1,	28,	35,	-1,	-1,	-1,	-1,	-1,	20,	24,	-1,	-1,	-1,	-1,	-1,	-1,	-1,	17,	-1,	-1,	-1,	-1,	-1,	-1,	-1,	-1,	-1,	-1,	29,	-1,	-1|
-1,	-1,	-1,	23,	-1,	-1,	-1,	-1,	-1,	-1,	-1,	-1,	6,	33,	26,	-1,	15,	-1,	-1,	-1,	-1,	-1,	-1,	1,	-1,	-1,	-1,	-1,	-1,	-1,	-1,	-1,	-1,	-1,	-1,	-1|
-1,	-1,	32,	-1,	14,	13,	3,	18,	-1,	-1,	-1,	-1,	4,	-1,	-1,	-1,	22,	-1,	-1,	-1,	10,	-1,	-1,	-1,	-1,	-1,	-1,	-1,	27,	-1,	-1,	-1,	8,	-1,	20,	-1|
-1,	-1,	24,	-1,	26,	8,	-1,	1,	-1,	15,	-1,	-1,	-1,	-1,	-1,	-1,	-1,	-1,	-1,	-1,	-1,	-1,	-1,	-1,	2,	-1,	-1,	-1,	-1,	-1,	-1,	-1,	23,	-1,	-1,	-1|
-1,	-1,	11,	-1,	22,	19,	12,	7,	-1,	-1,	33,	-1,	-1,	-1,	-1,	-1,	-1,	-1,	-1,	-1,	-1,	2,	-1,	-1,	-1,	-1,	-1,	-1,	29,	-1,	1,	-1,	-1,	4,	-1,	36|
-1,	-1,	6,	1,	-1,	-1,	-1,	-1,	-1,	32,	-1,	5,	14,	-1,	-1,	-1,	-1,	-1,	17,	-1,	-1,	24,	-1,	-1,	15,	-1,	-1,	-1,	-1,	-1,	-1,	7,	13,	-1,	-1,	35|
-1,	-1,	-1,	-1,	-1,	-1,	-1,	-1,	36,	-1,	-1,	29,	-1,	1,	-1,	-1,	-1,	-1,	15,	-1,	-1,	-1,	-1,	-1,	-1,	-1,	-1,	-1,	9,	-1,	-1,	-1,	19,	-1,	34,	-1|
-1,	-1,	-1,	-1,	-1,	-1,	32,	-1,	-1,	22,	-1,	7,	10,	-1,	-1,	-1,	11,	-1,	33,	3,	-1,	-1,	-1,	-1,	-1,	-1,	17,	29,	-1,	-1,	2,	-1,	34,	6,	8,	-1|
-1,	-1,	20,	17,	-1,	-1,	-1,	-1,	35,	-1,	-1,	14,	-1,	-1,	-1,	-1,	28,	-1,	-1,	25,	-1,	-1,	10,	-1,	-1,	-1,	-1,	-1,	23,	-1,	18,	24,	-1,	19,	-1,	-1|
35,	-1,	21,	-1,	-1,	22,	-1,	-1,	-1,	34,	-1,	-1,	8,	30,	-1,	-1,	-1,	-1,	-1,	-1,	-1,	32,	-1,	-1,	-1,	-1,	15,	-1,	6,	20,	16,	-1,	-1,	-1,	-1,	-1|
-1,	-1,	-1,	34,	-1,	23,	-1,	-1,	18,	24,	-1,	-1,	1,	-1,	13,	-1,	12,	-1,	-1,	-1,	-1,	5,	-1,	31,	-1,	-1,	-1,	-1,	19,	-1,	-1,	-1,	-1,	-1,	-1,	-1|
15,	-1,	7,	-1,	8,	-1,	25,	-1,	-1,	-1,	-1,	-1,	-1,	-1,	-1,	-1,	-1,	32,	-1,	-1,	-1,	-1,	-1,	17,	5,	30,	-1,	-1,	-1,	-1,	10,	11,	-1,	-1,	26,	29|
-1,	-1,	-1,	36,	19,	-1,	-1,	-1,	-1,	-1,	-1,	33,	24,	3,	-1,	-1,	-1,	-1,	-1,	-1,	34,	-1,	-1,	22,	-1,	-1,	25,	-1,	-1,	-1,	7,	-1,	5,	15,	31,	-1|
-1,	-1,	-1,	-1,	-1,	-1,	-1,	-1,	-1,	-1,	3,	-1,	5,	-1,	-1,	-1,	-1,	4,	-1,	-1,	-1,	-1,	-1,	16,	33,	-1,	34,	-1,	-1,	22,	-1,	-1,	29,	27,	-1,	-1|
-1,	2,	-1,	-1,	-1,	-1,	-1,	-1,	-1,	19,	-1,	-1,	-1,	-1,	-1,	-1,	10,	15,	-1,	-1,	-1,	-1,	-1,	34,	-1,	-1,	-1,	21,	36,	29,	-1,	-1,	26,	-1,	28,	23|
-1,	-1,	5,	-1,	-1,	-1,	2,	-1,	16,	28,	-1,	-1,	7,	-1,	-1,	-1,	-1,	-1,	-1,	-1,	-1,	-1,	-1,	11,	-1,	-1,	-1,	18,	-1,	-1,	-1,	-1,	-1,	21,	-1,	-1|
-1,	-1,	-1,	-1,	11,	-1,	-1,	-1,	29,	-1,	34,	-1,	12,	8,	-1,	-1,	-1,	-1,	-1,	-1,	-1,	-1,	-1,	-1,	-1,	-1,	-1,	-1,	-1,	-1,	-1,	-1,	-1,	-1,	-1,	5|
-1,	-1,	-1,	-1,	23,	28,	-1,	32,	-1,	-1,	-1,	-1,	-1,	-1,	-1,	22,	-1,	26,	2,	-1,	-1,	-1,	33,	-1,	-1,	-1,	-1,	-1,	-1,	-1,	-1,	-1,	-1,	25,	1,	-1|
-1,	-1,	-1,	27,	-1,	-1,	-1,	-1,	26,	-1,	-1,	-1,	-1,	-1,	-1,	-1,	9,	-1,	-1,	-1,	-1,	20,	-1,	-1,	-1,	16,	-1,	25,	-1,	-1,	-1,	19,	-1,	-1,	-1,	-1|];
